Version identifier: 22.1.1.0 | 2022-11-28 | 9160aff4d
CPXPARAM_ClockType                               1
CPXPARAM_Read_DataCheck                          1
CPXPARAM_Threads                                 1
CPXPARAM_TimeLimit                               7200
CPXPARAM_MIP_Tolerances_AbsMIPGap                0
CPXPARAM_MIP_Tolerances_MIPGap                   0
CPXPARAM_MIP_Tolerances_Integrality              0
Tried aggregator 2 times.
MIP Presolve eliminated 98885 rows and 110743 columns.
MIP Presolve modified 19875 coefficients.
Aggregator did 3495 substitutions.
Reduced MIP has 12600 rows, 9617 columns, and 49207 nonzeros.
Reduced MIP has 8940 binaries, 677 generals, 0 SOSs, and 0 indicators.
Presolve time = 0.19 sec. (138.46 ticks)
Found incumbent of value 0.000000 after 0.24 sec. (162.88 ticks)
Probing time = 0.01 sec. (4.20 ticks)
Tried aggregator 1 time.
Detecting symmetries...
MIP Presolve eliminated 76 rows and 133 columns.
MIP Presolve modified 10 coefficients.
Reduced MIP has 12524 rows, 9484 columns, and 48950 nonzeros.
Reduced MIP has 8826 binaries, 658 generals, 0 SOSs, and 0 indicators.
Presolve time = 0.15 sec. (104.56 ticks)
Probing time = 0.01 sec. (4.17 ticks)
Clique table members: 3041.
MIP emphasis: balance optimality and feasibility.
MIP search method: dynamic search.
Parallel mode: none, using 1 thread.
Root relaxation solution time = 1.12 sec. (723.18 ticks)

        Nodes                                         Cuts/
   Node  Left     Objective  IInf  Best Integer    Best Bound    ItCnt     Gap

*     0+    0                         4950.0000    15668.0000           216.53%
      0     0     7830.0000  5088     4950.0000     7830.0000     8714   58.18%
      0     0     6771.4667  1373     4950.0000    Cuts: 1326    11821   36.80%
      0     0     6748.6667  1115     4950.0000     Cuts: 396    12702   36.34%
      0     0     6748.0000  1172     4950.0000     Cuts: 308    13668   36.32%
*     0+    0                         4976.0000     6748.0000            35.61%
      0     0        cutoff           4976.0000     6748.0000    13668   35.61%
      0     0     6748.0000  1216     4976.0000     Cuts: 218    14333   35.61%
      0     0     6748.0000   405     4976.0000  ZeroHalf: 10    14380   35.61%
*     0+    0                         5188.0000     6748.0000            30.07%
*     0+    0                         5364.0000     6748.0000            25.80%
*     0+    0                         5594.0000     6748.0000            20.63%
      0     0        cutoff           5594.0000     6748.0000    14380   20.63%

Repeating presolve.
Tried aggregator 1 time.
MIP Presolve eliminated 148 rows and 238 columns.
Reduced MIP has 12376 rows, 9246 columns, and 48385 nonzeros.
Reduced MIP has 8604 binaries, 642 generals, 0 SOSs, and 0 indicators.
Presolve time = 0.07 sec. (41.29 ticks)
Probing time = 0.01 sec. (4.12 ticks)
Tried aggregator 1 time.
MIP Presolve eliminated 404 rows and 707 columns.
Reduced MIP has 11972 rows, 8539 columns, and 47072 nonzeros.
Reduced MIP has 7998 binaries, 541 generals, 0 SOSs, and 0 indicators.
Presolve time = 0.04 sec. (21.32 ticks)
Probing time = 0.01 sec. (3.99 ticks)
Tried aggregator 1 time.
MIP Presolve eliminated 404 rows and 707 columns.
Reduced MIP has 11568 rows, 7832 columns, and 45759 nonzeros.
Reduced MIP has 7392 binaries, 440 generals, 0 SOSs, and 0 indicators.
Presolve time = 0.04 sec. (20.58 ticks)
Probing time = 0.01 sec. (3.86 ticks)
Tried aggregator 1 time.
MIP Presolve eliminated 408 rows and 714 columns.
Reduced MIP has 11160 rows, 7118 columns, and 44433 nonzeros.
Reduced MIP has 6780 binaries, 338 generals, 0 SOSs, and 0 indicators.
Presolve time = 0.03 sec. (19.84 ticks)
Probing time = 0.01 sec. (3.73 ticks)
Tried aggregator 1 time.
MIP Presolve eliminated 408 rows and 714 columns.
Reduced MIP has 10752 rows, 6404 columns, and 43107 nonzeros.
Reduced MIP has 6168 binaries, 236 generals, 0 SOSs, and 0 indicators.
Presolve time = 0.04 sec. (19.09 ticks)
Probing time = 0.00 sec. (3.60 ticks)
Tried aggregator 1 time.
MIP Presolve eliminated 408 rows and 714 columns.
Reduced MIP has 10344 rows, 5690 columns, and 41781 nonzeros.
Reduced MIP has 5556 binaries, 134 generals, 0 SOSs, and 0 indicators.
Presolve time = 0.04 sec. (18.34 ticks)
Probing time = 0.00 sec. (3.48 ticks)
Tried aggregator 1 time.
MIP Presolve eliminated 408 rows and 714 columns.
Reduced MIP has 9936 rows, 4976 columns, and 40455 nonzeros.
Reduced MIP has 4944 binaries, 32 generals, 0 SOSs, and 0 indicators.
Presolve time = 0.03 sec. (17.59 ticks)
Probing time = 0.00 sec. (3.35 ticks)
Tried aggregator 1 time.
Detecting symmetries...
MIP Presolve eliminated 128 rows and 224 columns.
Reduced MIP has 9808 rows, 4752 columns, and 40039 nonzeros.
Reduced MIP has 4752 binaries, 0 generals, 0 SOSs, and 0 indicators.
Presolve time = 0.09 sec. (45.96 ticks)
Represolve time = 1.12 sec. (1095.66 ticks)
Probing time = 0.01 sec. (3.31 ticks)
Clique table members: 2362.
MIP emphasis: balance optimality and feasibility.
MIP search method: dynamic search.
Parallel mode: none, using 1 thread.
Root relaxation solution time = 0.46 sec. (204.75 ticks)

        Nodes                                         Cuts/
   Node  Left     Objective  IInf  Best Integer    Best Bound    ItCnt     Gap

*     0+    0                         5594.0000     6748.0000            20.63%
      0     0     6748.0000  1241     5594.0000     6748.0000    18698   20.63%
      0     0     6748.0000   552     5594.0000      Cuts: 29    18825   20.63%
      0     0     6748.0000   874     5594.0000     Cuts: 268    19528   20.63%
      0     0     6748.0000   376     5594.0000  ZeroHalf: 24    19677   20.63%
*     0+    0                         5630.0000     6748.0000            19.86%
*     0+    0                         5750.0000     6748.0000            17.36%
      0     0        cutoff           5750.0000     6748.0000    19677   17.36%
      0     0     6748.0000   485     5750.0000 ZeroHalf: 173    20135   17.36%
*     0+    0                         5782.0000     6748.0000            16.71%
*     0+    0                         5830.0000     6748.0000            15.75%
      0     0        cutoff           5830.0000     6748.0000    20135   15.75%
      0     2     6748.0000   312     5830.0000     6748.0000    20135   15.75%
Elapsed time = 11.93 sec. (8444.29 ticks, tree = 0.01 MB, solutions = 12)
     26    28     6732.0000   283     5830.0000     6748.0000    22662   15.75%
     37    39     6732.0000   420     5830.0000     6748.0000    25564   15.75%
     54    54     6732.0000   153     5830.0000     6748.0000    26878   15.75%
     73    70    infeasible           5830.0000     6748.0000    28835   15.75%
    103    92     6714.0000    93     5830.0000     6748.0000    30415   15.75%
*   120+   79                         6716.0000     6748.0000             0.48%
    131    89     6748.0000   213     6716.0000     6748.0000    31857    0.48%
    150   108     6748.0000   127     6716.0000     6748.0000    33067    0.48%
    166   124     6748.0000    86     6716.0000     6748.0000    34138    0.48%
    178   136     6748.0000   139     6716.0000     6748.0000    34753    0.48%
*   220+  174                         6720.0000     6748.0000             0.42%
    320   258     6748.0000   153     6720.0000     6748.0000    40592    0.42%
Elapsed time = 17.60 sec. (12019.74 ticks, tree = 16.21 MB, solutions = 14)
    450   382     6731.5000   187     6720.0000     6748.0000    45509    0.42%
*   477+  364                         6730.0000     6748.0000             0.27%
*   480+  326                         6732.0000     6748.0000             0.24%
*   500+    0                         6748.0000     6748.0000             0.00%

Clique cuts applied:  74
Implied bound cuts applied:  1
Zero-half cuts applied:  502
Gomory fractional cuts applied:  16

Root node processing (before b&c):
  Real time             =   11.94 sec. (8458.20 ticks)
Sequential b&c:
  Real time             =    8.37 sec. (5424.90 ticks)
                          ------------
Total (root+branch&cut) =   20.31 sec. (13883.10 ticks)
Solution is feasible.

---------------------
@@@ MIP_optimal
>>> Benchmark mc2024_track1_015.cnf k 5 OPT 6748 TimeCost 180.64707493782043 TimeSolve 20.519951343536377 TimeRead 0.01360321044921875 TimeTrans 160.11352038383484
